Results/Experiment 1 Results/New Benchmark/RES_20/output_p1_0.50_p2_0.00_n_20_04.txt
solutions: 0 nodes: 0  modelTime: 106  solveTime: 9  totalTime: 117  modelSize: 7358  readTime: 2 matchingSize: 0
